File : Instances/p64
Use 136 s

21579

0 0 1 0 1 0 0 1 1 0 1 0 1 1 0 0 1 0 0 1 0 1 0 1 0 0 0 1 1 0 
7 19 21 27 2 12 21 27 27 28 4 28 13 13 28 7 13 10 27 27 27 16 23 2 10 27 27 19 4 2 19 19 4 16 27 12 8 8 16 16 7 8 12 4 8 19 13 21 19 10 27 16 2 16 8 12 7 8 27 7 4 2 7 8 13 12 23 19 28 12 7 12 19 8 23 23 10 23 8 16 10 2 8 7 4 13 19 2 27 7 28 19 7 7 2 13 28 12 2 28 28 21 12 7 4 2 4 27 27 13 19 4 27 12 12 8 28 7 28 8 8 12 28 19 4 16 2 12 19 28 28 21 12 10 23 8 13 13 28 10 12 27 12 12 7 2 16 21 27 7 27 28 23 28 8 28 2 16 13 13 13 27 10 2 23 27 23 4 13 21 23 8 19 10 4 2 27 10 4 10 2 21 2 19 12 8 28 23 27 21 2 21 19 4 7 12 7 21 10 19 
